Copyright (C) 2013-2015, Filipe Brandao
Build (method = -2)
  #dp: 609
  Step-3' Graph: 45 vertices and 313 arcs (0.00s)
  Step-4' Graph: 38 vertices and 299 arcs (0.00s)
  #V4/#V3 = 0.84
  #A4/#A3 = 0.96
Ready! (0.00s)
Optimize a model with 72 rows, 300 columns and 828 nonzeros
Found heuristic solution: objective 33
Presolve removed 19 rows and 25 columns
Presolve time: 0.00s
Presolved: 53 rows, 275 columns, 736 nonzeros
Variable types: 0 continuous, 275 integer (139 binary)
Optimize a model with 53 rows, 275 columns and 736 nonzeros
Presolved: 53 rows, 275 columns, 736 nonzeros

Root barrier log...

Ordering time: 0.00s

Barrier statistics:
 AA' NZ     : 3.850e+02
 Factor NZ  : 9.820e+02
 Factor Ops : 2.217e+04 (less than 1 second per iteration)
 Threads    : 1

                  Objective                Residual
Iter       Primal          Dual         Primal    Dual     Compl     Time
   0   4.15920266e+02 -6.37526425e+02  9.51e+02 1.57e-01  1.06e+01     0s
   1   1.24062805e+02 -2.33090610e+02  1.62e+02 5.55e-16  1.95e+00     0s
   2   4.41702708e+01 -5.83998796e+01  8.25e+00 7.77e-16  2.34e-01     0s
   3   3.07911616e+01  1.33035830e+01  1.16e+00 3.33e-16  3.45e-02     0s
   4   2.44392247e+01  1.82514113e+01  1.16e-01 2.43e-16  1.13e-02     0s
   5   2.36627686e+01  2.17040492e+01  1.15e-02 2.22e-16  3.52e-03     0s
   6   2.33288594e+01  2.23969999e+01  2.79e-03 4.44e-16  1.67e-03     0s
   7   2.31716526e+01  2.28342024e+01  6.73e-04 4.44e-16  6.05e-04     0s
   8   2.30945159e+01  2.30126472e+01  8.20e-05 2.90e-16  1.47e-04     0s
   9   2.30838845e+01  2.30816253e+01  2.82e-08 2.09e-16  4.05e-06     0s
  10   2.30833339e+01  2.30833316e+01  1.73e-14 4.44e-16  4.05e-09     0s
  11   2.30833333e+01  2.30833333e+01  2.13e-14 4.44e-16  4.06e-15     0s

Barrier solved model in 11 iterations and 0.00 seconds
Optimal objective 2.30833333e+01


Root relaxation: objective 2.308333e+01, 53 iterations, 0.00 seconds

    Nodes    |    Current Node    |     Objective Bounds      |     Work
 Expl Unexpl |  Obj  Depth IntInf | Incumbent    BestBd   Gap | It/Node Time

     0     0   23.08333    0   19   33.00000   23.08333  30.1%     -    0s
H    0     0                      24.0000000   23.08333  3.82%     -    0s

Explored 0 nodes (77 simplex iterations) in 0.01 seconds
Thread count was 1 (of 4 available processors)

Optimal solution found (tolerance 0.00e+00)
Best objective 2.400000000000e+01, best bound 2.400000000000e+01, gap 0.0%
Preprocessing time: 0.00 seconds
Gurobi run time: 0.01 seconds
Total run time: 0.01 seconds
Objective: 24
Solution:
1 x [i=1]
1 x [i=2, i=32]
1 x [i=3, i=31]
1 x [i=4, i=31]
1 x [i=5, i=31]
1 x [i=6, i=28]
1 x [i=7, i=26]
2 x [i=8, i=23]
1 x [i=9, i=24]
2 x [i=10, i=22]
1 x [i=10, i=29]
1 x [i=11, i=17]
1 x [i=11, i=18]
1 x [i=11, i=20]
1 x [i=12, i=16]
1 x [i=13, i=15]
1 x [i=14, i=33]
1 x [i=16, i=28, i=34]
1 x [i=19, i=28, i=31]
1 x [i=20, i=25, i=33]
1 x [i=21, i=30, i=30]
1 x [i=27]
